sat
(:eliminated-applications 4
 :eliminated-vars         2
 :max-memory              18.01
 :memory                  17.92
 :nlsat-propagations      5
 :nlsat-stages            3
 :num-allocs              5137
 :rlimit-count            762
 :time                    0.00)
